proyfinal/src/viki/013/experimentInOfficeAgust.take6.output/c6dd1969-5be4-4698-a1b7-571172aa68a0.als.dat
{'cnf.clauses': '118081',
 'cnf.totvars': '69608',
 'conflict literals': '11',
 'conflicts': '8',
 'decisions': '6840',
 'memused.mb': '17.57',
 'outcome': 'UNSAT',
 'propagations': '34970',
 'restarts': '1',
 'solver.msecs': 37,
 'task.msecs': 102}
