proyfinal/src/viki/013/experimentInOfficeAgust.take6.output/c6dd1969-5be4-4698-a1b7-571172aa68a0.als.out
Reading from standard input... Use '--help' for help.
============================[ Problem Statistics ]=============================
|                                                                             |
|  Number of variables:         69608                                         |
|  Number of clauses:          118081                                         |
|  Parse time:                   0.02 s                                       |
|                                                                             |
============================[ Search Statistics ]==============================
| Conflicts |          ORIGINAL         |          LEARNT          | Progress |
|           |    Vars  Clauses Literals |    Limit  Clauses Lit/Cl |          |
===============================================================================
===============================================================================
restarts              : 1
conflicts             : 8              (215 /sec)
decisions             : 6840           (0.00 % random) (183398 /sec)
propagations          : 34970          (937634 /sec)
conflict literals     : 11             (0.00 % deleted)
Memory used           : 17.57 MB
CPU time              : 0.037296 s

UNSATISFIABLE
